(set-option :produce-models true); benchmark generated from python API
(set-info :status unknown)
(declare-fun l_1_0_5 () Real)
(declare-fun l_1_0_4 () Real)
(declare-fun l_1_0_2 () Real)
(declare-fun l_1_0_9 () Real)
(declare-fun l_1_0_10 () Real)
(declare-fun _a_0_ () Real)
(declare-fun l_1_0_3 () Real)
(declare-fun _a_1_ () Real)
(declare-fun l_1_0_8 () Real)
(declare-fun l_1_0_7 () Real)
(declare-fun l_1_0_6 () Real)
(declare-fun l_1_0_11 () Real)
(declare-fun l_1_0_1 () Real)
(declare-fun l_1_1_9 () Real)
(declare-fun l_1_1_8 () Real)
(declare-fun l_1_1_7 () Real)
(declare-fun l_1_1_6 () Real)
(declare-fun l_1_1_5 () Real)
(declare-fun l_1_1_4 () Real)
(declare-fun l_1_1_3 () Real)
(declare-fun l_1_1_2 () Real)
(declare-fun l_1_1_17 () Real)
(declare-fun l_1_1_16 () Real)
(declare-fun l_1_1_14 () Real)
(declare-fun l_1_1_13 () Real)
(declare-fun l_1_1_12 () Real)
(declare-fun l_1_1_11 () Real)
(declare-fun l_1_1_10 () Real)
(declare-fun l_1_1_1 () Real)
(declare-fun l_1_1_15 () Real)
(declare-fun l_1_2_9 () Real)
(declare-fun l_1_2_8 () Real)
(declare-fun l_1_2_3 () Real)
(declare-fun l_1_2_16 () Real)
(declare-fun l_1_2_15 () Real)
(declare-fun l_1_2_12 () Real)
(declare-fun l_1_2_11 () Real)
(declare-fun l_1_2_1 () Real)
(declare-fun l_1_2_7 () Real)
(declare-fun l_1_2_6 () Real)
(declare-fun l_1_2_4 () Real)
(declare-fun l_1_2_2 () Real)
(declare-fun l_1_2_5 () Real)
(declare-fun l_1_2_17 () Real)
(declare-fun l_1_2_14 () Real)
(declare-fun l_1_2_13 () Real)
(declare-fun l_1_2_10 () Real)
(assert
 (let ((?x24 (* 80.0 l_1_0_5)))
 (let ((?x25 (* 80.0 l_1_0_4)))
 (let ((?x27 (* 80.0 l_1_0_2)))
 (let ((?x554 (- (- (- (- _a_0_ (* (* 2.0 l_1_0_10) l_1_0_9)) ?x27) ?x25) ?x24)))
 (= ?x554 0.0))))))
(assert
 (let ((?x445 (* l_1_0_9 l_1_0_9)))
 (let ((?x444 (+ (+ (- (+ _a_1_ l_1_0_2) (* 6400.0 l_1_0_3)) l_1_0_4) l_1_0_5)))
 (= (- ?x444 ?x445) 0.0))))
(assert
 (let ((?x457 (* l_1_0_11 l_1_0_11)))
 (let ((?x390 (- (- (- (- (- l_1_0_1) (* l_1_0_10 l_1_0_10)) ?x457) l_1_0_6) l_1_0_7)))
 (= (+ (- ?x390 l_1_0_8) 1.0) 0.0))))
(assert
 (= (* 160.0 l_1_0_3) 0.0))
(assert
 (= (- l_1_0_3) 0.0))
(assert
 (>= l_1_0_1 0.0))
(assert
 (>= l_1_0_2 0.0))
(assert
 (>= l_1_0_3 0.0))
(assert
 (>= l_1_0_4 0.0))
(assert
 (>= l_1_0_5 0.0))
(assert
 (>= l_1_0_6 0.0))
(assert
 (>= l_1_0_7 0.0))
(assert
 (>= l_1_0_8 0.0))
(assert
 (>= l_1_0_9 0.0))
(assert
 (>= l_1_0_11 0.0))
(assert
 (let ((?x283 (* 82.0 l_1_1_8)))
 (let ((?x311 (* 82.0 l_1_1_4)))
 (let ((?x310 (* 82.0 l_1_1_3)))
 (let ((?x322 (* l_1_1_17 l_1_1_17)))
 (let ((?x323 (* l_1_1_16 l_1_1_16)))
 (let ((?x19 (* 6724.0 l_1_1_12)))
 (let ((?x349 (* 82.0 l_1_1_11)))
 (let ((?x324 (- (- (+ (- (* 82.0 l_1_1_1) (* 1.0 l_1_1_10)) ?x349) ?x19) (* 1.0 l_1_1_13))))
 (let ((?x234 (+ (- (- (- (- ?x324 l_1_1_14) ?x323) ?x322) (* 1.0 l_1_1_2)) ?x310)))
 (let ((?x284 (+ (- (- (- (+ ?x234 ?x311) l_1_1_5) l_1_1_6) (* 1.0 l_1_1_7)) ?x283)))
 (= (- (- ?x284 l_1_1_9) 790.0) 0.0))))))))))))
(assert
 (let ((?x136 (* 81.0 l_1_1_4)))
 (let ((?x137 (* 81.0 l_1_1_3)))
 (let ((?x156 (* 13284.0 l_1_1_12)))
 (let ((?x153 (* 81.0 l_1_1_11)))
 (let ((?x142 (* _a_0_ l_1_1_7)))
 (let ((?x140 (* _a_0_ l_1_1_2)))
 (let ((?x143 (- (- (- (* (* (- 2.0) _a_0_) l_1_1_10) (* _a_0_ l_1_1_13)) ?x140) ?x142)))
 (let ((?x157 (- (+ (- ?x143 (* l_1_1_1 (- (* (- 82.0) _a_0_) 81.0))) ?x153) ?x156)))
 (let ((?x127 (- (+ (+ (- ?x157 (* (* 2.0 l_1_1_15) l_1_1_16)) ?x137) ?x136) (* l_1_1_8 (- (* (- 82.0) _a_0_) 81.0)))))
 (= (- ?x127 69.0) 0.0)))))))))))
(assert
 (let ((?x385 (* l_1_1_15 l_1_1_15)))
 (let ((?x373 (* 6397.0 l_1_1_12)))
 (let ((?x94 (* _a_1_ l_1_1_7)))
 (let ((?x379 (- (- (- (* (- _a_1_) l_1_1_13) (* _a_1_ l_1_1_2)) ?x94) (* l_1_1_1 (+ (- (* (- 81.0) _a_0_) (* 82.0 _a_1_)) 1.0)))))
 (let ((?x163 (- (- ?x379 (* l_1_1_10 (+ (* _a_0_ _a_0_) (* 2.0 _a_1_)))) l_1_1_11)))
 (let ((?x384 (- (- (- (- (- ?x163 ?x373) ?x385) l_1_1_3) l_1_1_4) (* l_1_1_8 (+ (- (* (- 81.0) _a_0_) (* 82.0 _a_1_)) 1.0)))))
 (= (+ ?x384 1.0) 0.0))))))))
(assert
 (let ((?x301 (* 162.0 l_1_1_12)))
 (let ((?x299 (- (* (* (* (- 2.0) _a_0_) _a_1_) l_1_1_10) (* l_1_1_1 (- _a_0_ (* 81.0 _a_1_))))))
 (= (- (+ ?x299 ?x301) (* l_1_1_8 (- _a_0_ (* 81.0 _a_1_)))) 0.0))))
(assert
 (let ((?x502 (- (- (* (- _a_1_) l_1_1_1) (* _a_1_ l_1_1_8)) (* (* l_1_1_10 _a_1_) _a_1_))))
 (= (- ?x502 l_1_1_12) 0.0)))
(assert
 (>= l_1_1_1 0.0))
(assert
 (>= l_1_1_2 0.0))
(assert
 (>= l_1_1_3 0.0))
(assert
 (>= l_1_1_4 0.0))
(assert
 (>= l_1_1_5 0.0))
(assert
 (>= l_1_1_6 0.0))
(assert
 (>= l_1_1_7 0.0))
(assert
 (>= l_1_1_8 0.0))
(assert
 (>= l_1_1_9 0.0))
(assert
 (>= l_1_1_10 0.0))
(assert
 (>= l_1_1_11 0.0))
(assert
 (>= l_1_1_12 0.0))
(assert
 (>= l_1_1_13 0.0))
(assert
 (>= l_1_1_14 0.0))
(assert
 (>= l_1_1_15 0.0))
(assert
 (>= l_1_1_17 0.0))
(assert
 (let ((?x579 (* 81.0 l_1_2_9)))
 (let ((?x575 (* 81.0 l_1_2_3)))
 (let ((?x570 (* 13284.0 l_1_2_12)))
 (let ((?x564 (* 81.0 l_1_2_1)))
 (let ((?x559 (* _a_0_ l_1_2_7)))
 (let ((?x48 (* _a_0_ l_1_2_6)))
 (let ((?x560 (- (- (- (* (* (- 2.0) _a_0_) l_1_2_2) (* _a_0_ l_1_2_4)) ?x48) ?x559)))
 (let ((?x569 (- (- (+ (+ ?x560 _a_0_) (* 1.0 _a_1_)) ?x564) (* l_1_2_11 (+ (* 82.0 _a_0_) 81.0)))))
 (let ((?x578 (- (- (- (- ?x569 ?x570) (* (* 2.0 l_1_2_15) l_1_2_16)) ?x575) (* l_1_2_8 (+ (* 82.0 _a_0_) 81.0)))))
 (= (- ?x578 ?x579) 0.0)))))))))))
(assert
 (let ((?x685 (* 82.0 l_1_2_9)))
 (let ((?x683 (* 82.0 l_1_2_8)))
 (let ((?x674 (* 82.0 l_1_2_3)))
 (let ((?x670 (* l_1_2_17 l_1_2_17)))
 (let ((?x668 (* l_1_2_16 l_1_2_16)))
 (let ((?x664 (* 6724.0 l_1_2_12)))
 (let ((?x662 (* 82.0 l_1_2_11)))
 (let ((?x661 (- (- (+ (* (/ 1.0 2.0) _a_0_) (* (/ 1.0 4.0) _a_1_)) (* 82.0 l_1_2_1)) l_1_2_10)))
 (let ((?x671 (- (- (- (- (- (- ?x661 ?x662) ?x664) l_1_2_13) l_1_2_14) ?x668) ?x670)))
 (let ((?x678 (- (- (- (- ?x671 (* 1.0 l_1_2_2)) ?x674) (* 1.0 l_1_2_4)) l_1_2_5)))
 (let ((?x686 (- (- (- (- ?x678 (* 1.0 l_1_2_6)) (* 1.0 l_1_2_7)) ?x683) ?x685)))
 (= (+ ?x686 1.0) 0.0)))))))))))))
(assert
 (let ((?x763 (* l_1_2_15 l_1_2_15)))
 (let ((?x761 (* 6397.0 l_1_2_12)))
 (let ((?x753 (* (/ 9997291.0 10000000.0) _a_1_)))
 (let ((?x750 (* _a_1_ l_1_2_7)))
 (let ((?x748 (* _a_1_ l_1_2_6)))
 (let ((?x754 (+ (- (- (- (* (- (/ 2709.0 10000000.0)) _a_0_) (* _a_1_ l_1_2_4)) ?x748) ?x750) ?x753)))
 (let ((?x760 (- (+ ?x754 l_1_2_1) (* l_1_2_11 (- (+ (* 81.0 _a_0_) (* 82.0 _a_1_)) 1.0)))))
 (let ((?x766 (- (- (- ?x760 ?x761) ?x763) (* l_1_2_2 (+ (* _a_0_ _a_0_) (* 2.0 _a_1_))))))
 (let ((?x769 (- (+ ?x766 l_1_2_3) (* l_1_2_8 (- (+ (* 81.0 _a_0_) (* 82.0 _a_1_)) 1.0)))))
 (= (+ ?x769 l_1_2_9) 0.0)))))))))))
(assert
 (let ((?x871 (* 162.0 l_1_2_12)))
 (let ((?x870 (- (- (* (* (* (- 2.0) _a_0_) _a_1_) l_1_2_2) (* (/ 2709.0 5000000.0) _a_1_)) (* l_1_2_11 (+ (- _a_0_) (* 81.0 _a_1_))))))
 (= (- (+ ?x870 ?x871) (* l_1_2_8 (+ (- _a_0_) (* 81.0 _a_1_)))) 0.0))))
(assert
 (let ((?x926 (* (/ 7338681.0 100000000000000.0) _a_1_)))
 (let ((?x928 (- (+ (+ (* _a_1_ l_1_2_11) (* _a_1_ l_1_2_8)) ?x926) l_1_2_12)))
 (= (- ?x928 (* (* l_1_2_2 _a_1_) _a_1_)) 0.0))))
(assert
 (>= l_1_2_1 0.0))
(assert
 (>= l_1_2_2 0.0))
(assert
 (>= l_1_2_3 0.0))
(assert
 (>= l_1_2_4 0.0))
(assert
 (>= l_1_2_5 0.0))
(assert
 (>= l_1_2_6 0.0))
(assert
 (>= l_1_2_7 0.0))
(assert
 (>= l_1_2_8 0.0))
(assert
 (>= l_1_2_9 0.0))
(assert
 (>= l_1_2_10 0.0))
(assert
 (>= l_1_2_11 0.0))
(assert
 (>= l_1_2_12 0.0))
(assert
 (>= l_1_2_13 0.0))
(assert
 (>= l_1_2_14 0.0))
(assert
 (>= l_1_2_15 0.0))
(assert
 (>= l_1_2_17 0.0))
(check-sat)
(get-model)